
;this file is automatically generated: Fri Jan 15 15:24:31 CST 2021

;declarations generated

(declare-fun T0 () Int)
(declare-fun T1 () Int)
(declare-fun T2 () Int)
(declare-fun T3 () Int)
(declare-fun T4 () Int)
(declare-fun T5 () Int)
(declare-fun T6 () Int)
(declare-fun T7 () Int)
(declare-fun T8 () Int)
(declare-fun T9 () Int)

;formula(s) generated
(assert (and (>= T0 0) (<= T0 2)))
(assert (and (>= T1 0) (<= T1 2)))
(assert (and (>= T2 0) (<= T2 2)))
(assert (and (>= T3 0) (<= T3 2)))
(assert (and (>= T4 0) (<= T4 2)))
(assert (and (>= T5 0) (<= T5 2)))
(assert (and (>= T6 0) (<= T6 2)))
(assert (and (>= T7 0) (<= T7 2)))
(assert (and (>= T8 0) (<= T8 2)))
(assert (and (>= T9 0) (<= T9 2)))
(assert (and (and (and (and (and (and (and (and (or (and (= T0 0) (= T1 0)) (and (= T0 0) (= T1 1))) (or (or (and (= T1 0) (= T2 0)) (and (= T1 0) (= T2 1))) (and (= T1 1) (= T2 0)))) (or (and (= T2 0) (= T3 0)) (and (= T2 0) (= T3 1)))) (or (or (and (= T3 0) (= T4 0)) (and (= T3 0) (= T4 1))) (and (= T3 1) (= T4 0)))) (or (and (= T4 0) (= T5 0)) (and (= T4 0) (= T5 1)))) (or (or (and (= T5 0) (= T6 0)) (and (= T5 0) (= T6 1))) (and (= T5 1) (= T6 0)))) (or (and (= T6 0) (= T7 0)) (and (= T6 0) (= T7 1)))) (or (or (and (= T7 0) (= T8 0)) (and (= T7 0) (= T8 1))) (and (= T7 1) (= T8 0)))) (or (and (= T8 0) (= T9 0)) (and (= T8 0) (= T9 1)))))
(assert (= T9 1))

 ;end of formula 